c The Problem describing the plan needed for the murder mystery story
p cnf 41 50
-1 0
-2 4 0
-2 -26 0
-2 -29 0
-2 10 0
-3 7 0
-3 -26 0
-3 -29 0
-3 10 0
-5 0
-4 2 0
-4 -27 0
-4 -30 0
-4 11 0
-6 8 0
-6 -27 0
-6 -30 0
-6 11 0
-9 0
-7 3 0
-7 -28 0
-7 -31 0
-7 12 0
-8 6 0
-8 -28 0
-8 -31 0
-8 12 0
-10 2 3 0
-11 4 6 0
-12 7 8 0
-25 -12 0
-25 -10 0
-25 36 0
25 0
-26 0
-27 0
28 0
29 0
-30 0
-31 0
-32 0
33 0
-33 11 -23 -16 -36 0
-33 11 -23 -17 -37 0
-33 11 -23 -18 -38 0
-34 0
36 37 38 0
-36 -37 0
-36 -38 0
-37 -38 0